data/MCDM/NO_CORR/GEN_FROM_60/10_ITEMS_1000_GEN/K5011W09.KNP.mps
NAME          BLANK   
ROWS
 N  OBJROW
 L  R0000000
COLUMNS
    C0000000  OBJROW     -56.          R0000000  764.        
    C0000001  OBJROW     -754.         R0000000  101.        
    C0000002  OBJROW     -144.         R0000000  430.        
    C0000003  OBJROW     -535.         R0000000  504.        
    C0000004  OBJROW     -741.         R0000000  634.        
    C0000005  OBJROW     -278.         R0000000  839.        
    C0000006  OBJROW     -415.         R0000000  118.        
    C0000007  OBJROW     -721.         R0000000  507.        
    C0000008  OBJROW     -953.         R0000000  223.        
    C0000009  OBJROW     -667.         R0000000  511.        
    C0000010  OBJROW     -33.          R0000000  503.        
RHS
    RHS       R0000000  14716.      
BOUNDS
 BV BOUND     C0000000  1.          
 BV BOUND     C0000001  1.          
 BV BOUND     C0000002  1.          
 BV BOUND     C0000003  1.          
 BV BOUND     C0000004  1.          
 BV BOUND     C0000005  1.          
 BV BOUND     C0000006  1.          
 BV BOUND     C0000007  1.          
 BV BOUND     C0000008  1.          
 BV BOUND     C0000009  1.          
 BV BOUND     C0000010  1.          
ENDATA
