interdiction/MCDM/NO_CORR/GEN_FROM_60/10_ITEMS_1000_GEN/K5011W09.KNP.txt
N 11
M 12
LC 11
LC 12
LC 13
LC 14
LC 15
LC 16
LC 17
LC 18
LC 19
LC 20
LC 21
LR 1
LR 2
LR 3
LR 4
LR 5
LR 6
LR 7
LR 8
LR 9
LR 10
LR 11
LR 12
LO -56
LO -754
LO -144
LO -535
LO -741
LO -278
LO -415
LO -721
LO -953
LO -667
LO -33
OS 1
IC 472
IC 147
IC 798
IC 18
IC 930
IC 961
IC 564
IC 142
IC 621
IC 955
IC 53
IB 2831
